solution status: time limit reached
objective value:                     61.9999999109911
shell_j_$_239                                       1 	(obj:0)
shell_j_$_270                                       1 	(obj:0)
shell_i_$_97                                        1 	(obj:0)
shell_i_$_245                                       1 	(obj:0)
shell_j_$_245                                       1 	(obj:0)
shell_j_$_86                                        1 	(obj:0)
shell_j_$_188                                       1 	(obj:0)
shell_j_$_78                                        1 	(obj:0)
shell_j_$_80                                        1 	(obj:0)
shell_j_$_200                                       1 	(obj:0)
shell_j_$_84                                        1 	(obj:0)
shell_i_$_241                                       1 	(obj:0)
shell_i_$_155                                       1 	(obj:0)
shell_i_$_172                                       1 	(obj:0)
shell_j_$_205                                       1 	(obj:0)
shell_i_$_254                                       1 	(obj:0)
shell_j_$_87                                        1 	(obj:0)
shell_j_$_213                                       1 	(obj:0)
shell_j_$_243                                       1 	(obj:0)
shell_j_$_279                                       1 	(obj:0)
shell_j_$_278                                       1 	(obj:0)
shell_j_$_203                                       1 	(obj:0)
shell_j_$_81                                        1 	(obj:0)
shell_j_$_204                                       1 	(obj:0)
shell_j_$_164                                       1 	(obj:0)
shell_j_$_277                                       1 	(obj:0)
shell_j_$_198                                       1 	(obj:0)
shell_j_$_237                                       1 	(obj:0)
shell_j_$_75                                        1 	(obj:0)
shell_j_$_154                                       1 	(obj:0)
shell_j_$_195                                       1 	(obj:0)
shell_j_$_159                                       1 	(obj:0)
shell_j_$_82                                        1 	(obj:0)
shell_j_$_74                                        1 	(obj:0)
shell_j_$_161                                       1 	(obj:0)
shell_j_$_244                                       1 	(obj:0)
shell_j_$_162                                       1 	(obj:0)
shell_i_$_197                        1.00000000000005 	(obj:0)
shell_j_$_83                                        1 	(obj:0)
shell_i_$_246                                       1 	(obj:0)
shell_j_$_236                                       1 	(obj:0)
shell_j_$_163                                       1 	(obj:0)
shell_j_$_196                                       1 	(obj:0)
shell_j_$_238                                       1 	(obj:0)
shell_i_$_147                                       1 	(obj:0)
shell_j_$_96                                        1 	(obj:0)
shell_j_$_85                                        1 	(obj:0)
shell_j_$_156                                       1 	(obj:0)
shell_j_$_79                                        1 	(obj:0)
shell_j_$_157                                       1 	(obj:0)
shell_j_$_202                                       1 	(obj:0)
shell_i_$_229                                       1 	(obj:0)
$_203_z                              12.0000000024469 	(obj:0)
$_200_x                                             9 	(obj:0)
$_200_y                                            12 	(obj:0)
$_81_x                               11.0000000191129 	(obj:0)
$_81_y                                             12 	(obj:0)
$_81_z                                             15 	(obj:0)
$_200_z                                             4 	(obj:0)
$_245_y                                            12 	(obj:0)
$_204_x                                            10 	(obj:0)
$_204_y                                            12 	(obj:0)
$_204_z                                            -8 	(obj:0)
$_245_z                                           -12 	(obj:0)
$_84_x                                             12 	(obj:0)
$_164_x                                            12 	(obj:0)
$_164_y                                            12 	(obj:0)
$_164_z                                            -7 	(obj:0)
$_84_y                                             12 	(obj:0)
$_84_z                                            -13 	(obj:0)
$_277_x                                            12 	(obj:0)
$_277_y                                            12 	(obj:0)
$_277_z                                            13 	(obj:0)
$_270_y                                            12 	(obj:0)
$_270_z                                             1 	(obj:0)
$_198_x                                            12 	(obj:0)
$_198_y                                            12 	(obj:0)
$_198_z                                            -8 	(obj:0)
$_241_x                                            12 	(obj:0)
$_241_y                              10.9999999990892 	(obj:0)
$_237_x                                            11 	(obj:0)
$_237_y                                            12 	(obj:0)
$_237_z                                            12 	(obj:0)
$_241_z                                             5 	(obj:0)
$_86_x                                             11 	(obj:0)
$_75_x                                             12 	(obj:0)
$_75_y                                             12 	(obj:0)
$_75_z                                             18 	(obj:0)
$_86_y                                             12 	(obj:0)
$_155_x                                            12 	(obj:0)
$_154_x                                            12 	(obj:0)
$_154_y                                            12 	(obj:0)
$_154_z                              15.0000000119223 	(obj:0)
$_155_y                              11.9999999959347 	(obj:0)
$_155_z                                            16 	(obj:0)
$_195_x                                            10 	(obj:0)
$_195_y                                            12 	(obj:0)
$_195_z                                            12 	(obj:0)
$_86_z                              -11.0000000499966 	(obj:0)
$_239_z                                           -10 	(obj:0)
$_159_x                                             8 	(obj:0)
$_159_y                                            12 	(obj:0)
$_159_z                                             8 	(obj:0)
$_172_x                                            12 	(obj:0)
$_172_y                                            11 	(obj:0)
$_82_x                                              9 	(obj:0)
$_82_y                                             12 	(obj:0)
$_82_z                                            -12 	(obj:0)
$_172_z                                             6 	(obj:0)
$_239_x                                            12 	(obj:0)
$_74_x                                             12 	(obj:0)
$_74_y                                             12 	(obj:0)
$_74_z                                             14 	(obj:0)
$_188_x                                             9 	(obj:0)
$_205_x                                            12 	(obj:0)
$_161_x                                             8 	(obj:0)
$_161_y                                            12 	(obj:0)
$_161_z                                             6 	(obj:0)
$_205_y                                            12 	(obj:0)
$_205_z                                            -9 	(obj:0)
$_244_x                                             8 	(obj:0)
$_244_y                                            12 	(obj:0)
$_244_z                                            14 	(obj:0)
$_188_y                                            12 	(obj:0)
$_188_z                                             5 	(obj:0)
$_162_x                                            10 	(obj:0)
$_162_y                                            12 	(obj:0)
$_162_z                                            14 	(obj:0)
$_254_x                                            12 	(obj:0)
$_254_y                                            11 	(obj:0)
$_197_x                              12.0000000001678 	(obj:0)
$_197_y                              11.0000000077422 	(obj:0)
$_197_z                                           -12 	(obj:0)
$_97_x                                             12 	(obj:0)
$_83_x                                              9 	(obj:0)
$_83_y                                             12 	(obj:0)
$_83_z                                             -7 	(obj:0)
$_97_y                                             11 	(obj:0)
$_87_x                                             12 	(obj:0)
$_246_x                                            12 	(obj:0)
$_246_y                                            11 	(obj:0)
$_246_z                                           -10 	(obj:0)
$_87_y                                             12 	(obj:0)
$_87_z                                             -6 	(obj:0)
$_236_x                                            12 	(obj:0)
$_236_y                                            12 	(obj:0)
$_236_z                                            12 	(obj:0)
$_78_x                                             12 	(obj:0)
$_78_y                                             12 	(obj:0)
$_163_x                                             9 	(obj:0)
$_163_y                                            12 	(obj:0)
$_163_z                                            -8 	(obj:0)
$_213_x                                            10 	(obj:0)
$_213_y                                            12 	(obj:0)
$_196_x                                             8 	(obj:0)
$_196_y                                            12 	(obj:0)
$_196_z                                            12 	(obj:0)
$_213_z                                             4 	(obj:0)
$_78_z                                              6 	(obj:0)
$_238_x                              10.0000000064297 	(obj:0)
$_238_y                                            12 	(obj:0)
$_238_z                                           -12 	(obj:0)
$_97_z                                             10 	(obj:0)
$_243_x                                            12 	(obj:0)
$_147_x                                            12 	(obj:0)
$_147_y                                             9 	(obj:0)
$_147_z                                             8 	(obj:0)
$_243_y                                            12 	(obj:0)
$_243_z                                             4 	(obj:0)
$_96_x                                             11 	(obj:0)
$_96_y                                             12 	(obj:0)
$_96_z                                             -1 	(obj:0)
$_239_y                                            12 	(obj:0)
$_80_x                                              9 	(obj:0)
$_85_x                                              9 	(obj:0)
$_85_y                                             12 	(obj:0)
$_85_z                                             -6 	(obj:0)
$_279_x                                            12 	(obj:0)
$_279_y                                            12 	(obj:0)
$_156_x                                            10 	(obj:0)
$_156_y                                            12 	(obj:0)
$_156_z                                            -9 	(obj:0)
$_279_z                                             5 	(obj:0)
$_80_y                                             12 	(obj:0)
$_79_x                                              7 	(obj:0)
$_79_y                                             12 	(obj:0)
$_79_z                                              6 	(obj:0)
$_80_z                                             14 	(obj:0)
$_278_x                                            12 	(obj:0)
$_157_x                                            10 	(obj:0)
$_157_y                                            12 	(obj:0)
$_157_z                                            -6 	(obj:0)
$_278_y                                            12 	(obj:0)
$_278_z                                           -11 	(obj:0)
$_202_x                                            10 	(obj:0)
$_202_y                                            12 	(obj:0)
$_202_z                                             3 	(obj:0)
$_270_x                                            11 	(obj:0)
$_245_x                                            12 	(obj:0)
$_229_x                                            12 	(obj:0)
$_229_y                                            10 	(obj:0)
$_229_z                                             2 	(obj:0)
$_203_x                                             9 	(obj:0)
$_203_y                                            12 	(obj:0)
x258                                                2 	(obj:1)
x267                                                1 	(obj:1)
x273                                                2 	(obj:1)
x277                                                1 	(obj:1)
x296                                0.999999996111377 	(obj:1)
x302                             -2.61205064074883e-09 	(obj:1)
x306                                                2 	(obj:1)
x307                                                2 	(obj:1)
x308                                                1 	(obj:1)
x315                                                1 	(obj:1)
x319                                                1 	(obj:1)
x320                                                1 	(obj:1)
x328                                                2 	(obj:1)
x329                                                1 	(obj:1)
x330                                                2 	(obj:1)
x340                                                2 	(obj:1)
x342                                                1 	(obj:1)
x354                                  0.9999999946502 	(obj:1)
x355                                0.999999973696477 	(obj:1)
x361                                                2 	(obj:1)
x373                                                2 	(obj:1)
x375                                                1 	(obj:1)
x379                                                2 	(obj:1)
x385                                                1 	(obj:1)
x388                                                1 	(obj:1)
x390                                                1 	(obj:1)
x396                                0.999999980887072 	(obj:1)
x397                                                2 	(obj:1)
x399                                 1.00000000536054 	(obj:1)
x403                                                2 	(obj:1)
x420                                                2 	(obj:1)
x427                                                2 	(obj:1)
x432                                                2 	(obj:1)
x433                             -2.85712477789129e-09 	(obj:1)
x435                                                2 	(obj:1)
x436                             -5.48653764539124e-09 	(obj:1)
x437                                0.999999985067162 	(obj:1)
x442                              -1.571785328264e-09 	(obj:1)
x443                                                1 	(obj:1)
x446                                                1 	(obj:1)
x453                                                1 	(obj:1)
x466                                 1.99999998792392 	(obj:1)
x483                                                1 	(obj:1)
x484                                                2 	(obj:1)
x496                                                2 	(obj:1)
x502                                                2 	(obj:1)
